     Program PWSCF v.7.2 starts on  4Apr2024 at 13:17: 0

     Reading input from TiN_slab_D3.in
Warning: card &CELL ignored
Warning: card / ignored

     Current dimensions of program PWSCF are:
     Max number of different atomic species (ntypx) = 10
     Max number of k-points (npk) = 120000
     Max angular momentum in pseudopotentials (lmaxx) =  4

     IMPORTANT: XC functional enforced from input :
     Exchange-correlation= PBE
                           (   1   4   3   4   0   0   0)
     Any further DFT definition will be discarded
     Please, verify this is what you really want

     Found identity + (  0.2500  0.2500  0.0000) symmetry
     This is a supercell, fractional translations are disabled
     Message from routine setup:
     using ibrav=0 with symmetry is DISCOURAGED, use correct ibrav instead

     K-points division:     npool     =       3
     R & G space division:  proc/nbgrp/npool/nimage =      10
     Subspace diagonalization in iterative solution of the eigenvalue problem:
     one sub-group per band group will be used

     Using Slab Decomposition

     bravais-lattice index     =            0
     lattice parameter (alat)  =      16.1801  a.u.
     unit-cell volume          =   13071.3186 (a.u.)^3
     number of atoms/cell      =           64
     number of atomic types    =            2
     number of electrons       =       544.00
     number of Kohn-Sham states=          326
     kinetic-energy cutoff     =      40.0000  Ry
     charge density cutoff     =     300.0000  Ry
     scf convergence threshold =      1.0E-08
     mixing beta               =       0.3000
     number of iterations used =            8  TF        mixing
     energy convergence thresh.=      1.0E-04
     force convergence thresh. =      7.3E-04
     Exchange-correlation= PBE
                           (   1   4   3   4   0   0   0)
     nstep                     =           50

     celldm(1)=  16.180082  celldm(2)=   0.000000  celldm(3)=   0.000000
     celldm(4)=   0.000000  celldm(5)=   0.000000  celldm(6)=   0.000000

     crystal axes: (cart. coord. in units of alat)
               a(1) = (   1.000000   0.000000   0.000000 )
               a(2) = (   0.000000   1.000000   0.000000 )
               a(3) = (   0.000000   0.000000   3.085867 )

     reciprocal axes: (cart. coord. in units 2 pi/alat)
               b(1) = (  1.000000  0.000000  0.000000 )
               b(2) = (  0.000000  1.000000  0.000000 )
               b(3) = (  0.000000  0.000000  0.324058 )

     PseudoPot. # 1 for Ti read from file:
     ./US_PBE_PP/ti_pbe_v1.4.uspp.F.UPF
     MD5 check sum: 88a00a6731bd790ddea75d31a80cb452
     Pseudo is Ultrasoft + core correction, Zval = 12.0
     Generated by new atomic code, or converted to UPF format
     Using radial grid of  851 points,  6 beta functions with:
                l(1) =   0
                l(2) =   0
                l(3) =   1
                l(4) =   1
                l(5) =   2
                l(6) =   2
     Q(r) pseudized with  6 coefficients,  rinner =    1.000   1.000   1.000
                                                       1.000   1.000

     PseudoPot. # 2 for N  read from file:
     ./US_PBE_PP/n_pbe_v1.2.uspp.F.UPF
     MD5 check sum: 95339753478d7afb44899504a8723017
     Pseudo is Ultrasoft + core correction, Zval =  5.0
     Generated by new atomic code, or converted to UPF format
     Using radial grid of  729 points,  4 beta functions with:
                l(1) =   0
                l(2) =   0
                l(3) =   1
                l(4) =   1
     Q(r) pseudized with  8 coefficients,  rinner =    0.900   0.900   0.900

     atomic species   valence    mass     pseudopotential
        Ti            12.00    47.86700     Ti( 1.00)
        N              5.00    14.00700     N ( 1.00)

      8 Sym. Ops. (no inversion) found

   Cartesian axes

     site n.     atom                  positions (alat units)
         1           Ti  tau(   1) = (   0.0000000   0.0000000   1.1679336  )
         2           Ti  tau(   2) = (   0.2500000   0.0000000   1.4179336  )
         3           Ti  tau(   3) = (   0.0000000   0.2500000   1.4179336  )
         4           Ti  tau(   4) = (   0.2500000   0.2500000   1.1679336  )
         5           N   tau(   5) = (   0.0000000   0.2500000   1.1679336  )
         6           N   tau(   6) = (   0.0000000   0.0000000   1.4179336  )
         7           N   tau(   7) = (   0.2500000   0.0000000   1.1679336  )
         8           N   tau(   8) = (   0.2500000   0.2500000   1.4179336  )
         9           Ti  tau(   9) = (   0.0000000   0.0000000   1.6679336  )
        10           Ti  tau(  10) = (   0.2500000   0.0000000   1.9179336  )
        11           Ti  tau(  11) = (   0.0000000   0.2500000   1.9179336  )
        12           Ti  tau(  12) = (   0.2500000   0.2500000   1.6679336  )
        13           N   tau(  13) = (   0.0000000   0.2500000   1.6679336  )
        14           N   tau(  14) = (   0.0000000   0.0000000   1.9179336  )
        15           N   tau(  15) = (   0.2500000   0.0000000   1.6679336  )
        16           N   tau(  16) = (   0.2500000   0.2500000   1.9179336  )
        17           Ti  tau(  17) = (   0.0000000   0.5000000   1.1679336  )
        18           Ti  tau(  18) = (   0.2500000   0.5000000   1.4179336  )
        19           Ti  tau(  19) = (   0.0000000   0.7500000   1.4179336  )
        20           Ti  tau(  20) = (   0.2500000   0.7500000   1.1679336  )
        21           N   tau(  21) = (   0.0000000   0.7500000   1.1679336  )
        22           N   tau(  22) = (   0.0000000   0.5000000   1.4179336  )
        23           N   tau(  23) = (   0.2500000   0.5000000   1.1679336  )
        24           N   tau(  24) = (   0.2500000   0.7500000   1.4179336  )
        25           Ti  tau(  25) = (   0.0000000   0.5000000   1.6679336  )
        26           Ti  tau(  26) = (   0.2500000   0.5000000   1.9179336  )
        27           Ti  tau(  27) = (   0.0000000   0.7500000   1.9179336  )
        28           Ti  tau(  28) = (   0.2500000   0.7500000   1.6679336  )
        29           N   tau(  29) = (   0.0000000   0.7500000   1.6679336  )
        30           N   tau(  30) = (   0.0000000   0.5000000   1.9179336  )
        31           N   tau(  31) = (   0.2500000   0.5000000   1.6679336  )
        32           N   tau(  32) = (   0.2500000   0.7500000   1.9179336  )
        33           Ti  tau(  33) = (   0.5000000   0.0000000   1.1679336  )
        34           Ti  tau(  34) = (   0.7500000   0.0000000   1.4179336  )
        35           Ti  tau(  35) = (   0.5000000   0.2500000   1.4179336  )
        36           Ti  tau(  36) = (   0.7500000   0.2500000   1.1679336  )
        37           N   tau(  37) = (   0.5000000   0.2500000   1.1679336  )
        38           N   tau(  38) = (   0.5000000   0.0000000   1.4179336  )
        39           N   tau(  39) = (   0.7500000   0.0000000   1.1679336  )
        40           N   tau(  40) = (   0.7500000   0.2500000   1.4179336  )
        41           Ti  tau(  41) = (   0.5000000   0.0000000   1.6679336  )
        42           Ti  tau(  42) = (   0.7500000   0.0000000   1.9179336  )
        43           Ti  tau(  43) = (   0.5000000   0.2500000   1.9179336  )
        44           Ti  tau(  44) = (   0.7500000   0.2500000   1.6679336  )
        45           N   tau(  45) = (   0.5000000   0.2500000   1.6679336  )
        46           N   tau(  46) = (   0.5000000   0.0000000   1.9179336  )
        47           N   tau(  47) = (   0.7500000   0.0000000   1.6679336  )
        48           N   tau(  48) = (   0.7500000   0.2500000   1.9179336  )
        49           Ti  tau(  49) = (   0.5000000   0.5000000   1.1679336  )
        50           Ti  tau(  50) = (   0.7500000   0.5000000   1.4179336  )
        51           Ti  tau(  51) = (   0.5000000   0.7500000   1.4179336  )
        52           Ti  tau(  52) = (   0.7500000   0.7500000   1.1679336  )
        53           N   tau(  53) = (   0.5000000   0.7500000   1.1679336  )
        54           N   tau(  54) = (   0.5000000   0.5000000   1.4179336  )
        55           N   tau(  55) = (   0.7500000   0.5000000   1.1679336  )
        56           N   tau(  56) = (   0.7500000   0.7500000   1.4179336  )
        57           Ti  tau(  57) = (   0.5000000   0.5000000   1.6679336  )
        58           Ti  tau(  58) = (   0.7500000   0.5000000   1.9179336  )
        59           Ti  tau(  59) = (   0.5000000   0.7500000   1.9179336  )
        60           Ti  tau(  60) = (   0.7500000   0.7500000   1.6679336  )
        61           N   tau(  61) = (   0.5000000   0.7500000   1.6679336  )
        62           N   tau(  62) = (   0.5000000   0.5000000   1.9179336  )
        63           N   tau(  63) = (   0.7500000   0.5000000   1.6679336  )
        64           N   tau(  64) = (   0.7500000   0.7500000   1.9179336  )

     DFT-D3 Dispersion Correction (3-body terms):
       Reference C6 values for interpolation:

         atom   Coordination number   C6
         N          0.000            50.54
         N          0.994            44.25
         N          2.014            39.35
         N          2.990            31.16
         Ti         0.000          2723.84
         Ti         1.830           604.00
         Ti         3.868           643.18

       Values used:

         atom   Coordination number  R0_AB[au]  C6      C8
         Ti        11.142            3.557    643.18  76289.64
         Ti        15.226            3.557    643.18  76289.64
         Ti        15.226            3.557    643.18  76289.64
         Ti        11.142            3.557    643.18  76289.64
         N          4.876            2.478     31.16    687.49
         N          5.880            2.478     31.16    687.49
         N          4.876            2.478     31.16    687.49
         N          5.880            2.478     31.16    687.49
         Ti        15.226            3.557    643.18  76289.64
         Ti        11.142            3.557    643.18  76289.64
         Ti        11.142            3.557    643.18  76289.64
         Ti        15.226            3.557    643.18  76289.64
         N          5.880            2.478     31.16    687.49
         N          4.876            2.478     31.16    687.49
         N          5.880            2.478     31.16    687.49
         N          4.876            2.478     31.16    687.49
         Ti        11.142            3.557    643.18  76289.64
         Ti        15.226            3.557    643.18  76289.64
         Ti        15.226            3.557    643.18  76289.64
         Ti        11.142            3.557    643.18  76289.64
         N          4.876            2.478     31.16    687.49
         N          5.880            2.478     31.16    687.49
         N          4.876            2.478     31.16    687.49
         N          5.880            2.478     31.16    687.49
         Ti        15.226            3.557    643.18  76289.64
         Ti        11.142            3.557    643.18  76289.64
         Ti        11.142            3.557    643.18  76289.64
[...]
     atom   45 type  2   force =     0.00000000    0.00000000    0.00000000
     atom   46 type  2   force =     0.00000000    0.00000000    0.00000000
     atom   47 type  2   force =     0.00000000    0.00000000    0.00000000
     atom   48 type  2   force =     0.00000000    0.00000000    0.00000000
     atom   49 type  1   force =     0.00000000    0.00000000    0.00000000
     atom   50 type  1   force =     0.00000000    0.00000000    0.00000000
     atom   51 type  1   force =     0.00000000    0.00000000    0.00000000
     atom   52 type  1   force =     0.00000000    0.00000000    0.00000000
     atom   53 type  2   force =     0.00000000    0.00000000    0.00000000
     atom   54 type  2   force =     0.00000000    0.00000000    0.00000000
     atom   55 type  2   force =     0.00000000    0.00000000    0.00000000
     atom   56 type  2   force =     0.00000000    0.00000000    0.00000000
     atom   57 type  1   force =     0.00000000    0.00000000    0.00000000
     atom   58 type  1   force =     0.00000000    0.00000000    0.00000000
     atom   59 type  1   force =     0.00000000    0.00000000    0.00000000
     atom   60 type  1   force =     0.00000000    0.00000000    0.00000000
     atom   61 type  2   force =     0.00000000    0.00000000    0.00000000
     atom   62 type  2   force =     0.00000000    0.00000000    0.00000000
     atom   63 type  2   force =     0.00000000    0.00000000    0.00000000
     atom   64 type  2   force =     0.00000000    0.00000000    0.00000000
     The SCF correction term to forces
     atom    1 type  1   force =     0.00000000    0.00000000    0.00000000
     atom    2 type  1   force =     0.00000000    0.00000000    0.00000000
     atom    3 type  1   force =     0.00000000    0.00000000    0.00000000
     atom    4 type  1   force =     0.00000000    0.00000000    0.00000000
     atom    5 type  2   force =     0.00000000    0.00000000    0.00000000
     atom    6 type  2   force =     0.00000000    0.00000000    0.00000000
     atom    7 type  2   force =     0.00000000    0.00000000    0.00000000
     atom    8 type  2   force =     0.00000000    0.00000000    0.00000000
     atom    9 type  1   force =     0.00000000    0.00000000   -0.00000420
     atom   10 type  1   force =     0.00000003   -0.00000000   -0.00000391
     atom   11 type  1   force =     0.00000000    0.00000003   -0.00000391
     atom   12 type  1   force =     0.00000002    0.00000002   -0.00000418
     atom   13 type  2   force =     0.00000000    0.00000004   -0.00000162
     atom   14 type  2   force =     0.00000000    0.00000000   -0.00000157
     atom   15 type  2   force =     0.00000004    0.00000000   -0.00000162
     atom   16 type  2   force =    -0.00000000   -0.00000000   -0.00000151
     atom   17 type  1   force =     0.00000000    0.00000000    0.00000000
     atom   18 type  1   force =     0.00000000    0.00000000    0.00000000
     atom   19 type  1   force =     0.00000000    0.00000000    0.00000000
     atom   20 type  1   force =     0.00000000    0.00000000    0.00000000
     atom   21 type  2   force =     0.00000000    0.00000000    0.00000000
     atom   22 type  2   force =     0.00000000    0.00000000    0.00000000
     atom   23 type  2   force =     0.00000000    0.00000000    0.00000000
     atom   24 type  2   force =     0.00000000    0.00000000    0.00000000
     atom   25 type  1   force =     0.00000000    0.00000000   -0.00000420
     atom   26 type  1   force =    -0.00000004    0.00000000   -0.00000393
     atom   27 type  1   force =     0.00000000   -0.00000003   -0.00000391
     atom   28 type  1   force =     0.00000002   -0.00000002   -0.00000418
     atom   29 type  2   force =     0.00000000   -0.00000004   -0.00000162
     atom   30 type  2   force =     0.00000000    0.00000000   -0.00000160
     atom   31 type  2   force =    -0.00000004    0.00000000   -0.00000164
     atom   32 type  2   force =    -0.00000000    0.00000000   -0.00000151
     atom   33 type  1   force =     0.00000000    0.00000000    0.00000000
     atom   34 type  1   force =     0.00000000    0.00000000    0.00000000
     atom   35 type  1   force =     0.00000000    0.00000000    0.00000000
     atom   36 type  1   force =     0.00000000    0.00000000    0.00000000
     atom   37 type  2   force =     0.00000000    0.00000000    0.00000000
     atom   38 type  2   force =     0.00000000    0.00000000    0.00000000
     atom   39 type  2   force =     0.00000000    0.00000000    0.00000000
     atom   40 type  2   force =     0.00000000    0.00000000    0.00000000
     atom   41 type  1   force =     0.00000000    0.00000000   -0.00000420
     atom   42 type  1   force =    -0.00000003   -0.00000000   -0.00000391
     atom   43 type  1   force =     0.00000000   -0.00000004   -0.00000393
     atom   44 type  1   force =    -0.00000002    0.00000002   -0.00000418
     atom   45 type  2   force =     0.00000000   -0.00000004   -0.00000164
     atom   46 type  2   force =     0.00000000    0.00000000   -0.00000160
     atom   47 type  2   force =    -0.00000004    0.00000000   -0.00000162
     atom   48 type  2   force =     0.00000000   -0.00000000   -0.00000151
     atom   49 type  1   force =     0.00000000    0.00000000    0.00000000
     atom   50 type  1   force =     0.00000000    0.00000000    0.00000000
     atom   51 type  1   force =     0.00000000    0.00000000    0.00000000
     atom   52 type  1   force =     0.00000000    0.00000000    0.00000000
     atom   53 type  2   force =     0.00000000    0.00000000    0.00000000
     atom   54 type  2   force =     0.00000000    0.00000000    0.00000000
     atom   55 type  2   force =     0.00000000    0.00000000    0.00000000
     atom   56 type  2   force =     0.00000000    0.00000000    0.00000000
     atom   57 type  1   force =     0.00000000    0.00000000   -0.00000429
     atom   58 type  1   force =     0.00000004    0.00000000   -0.00000393
     atom   59 type  1   force =    -0.00000000    0.00000004   -0.00000393
     atom   60 type  1   force =    -0.00000002   -0.00000002   -0.00000418
     atom   61 type  2   force =     0.00000000    0.00000004   -0.00000164
     atom   62 type  2   force =     0.00000000    0.00000000   -0.00000157
     atom   63 type  2   force =     0.00000004    0.00000000   -0.00000164
     atom   64 type  2   force =     0.00000000    0.00000000   -0.00000151

     DFT-D3 dispersion contribution to forces:
     atom    1 type  1   force =    -0.00000000   -0.00000000    0.00487879
     atom    2 type  1   force =     0.00000000   -0.00000000    0.00275322
     atom    3 type  1   force =    -0.00000000    0.00000000    0.00275322
     atom    4 type  1   force =     0.00000000    0.00000000    0.00487882
     atom    5 type  2   force =     0.00000000    0.00000000    0.00167747
     atom    6 type  2   force =     0.00000000    0.00000000    0.00075471
     atom    7 type  2   force =     0.00000000    0.00000000    0.00167747
     atom    8 type  2   force =    -0.00000000   -0.00000000    0.00075470
     atom    9 type  1   force =    -0.00000000   -0.00000000   -0.00266152
     atom   10 type  1   force =    -0.00000000   -0.00000000   -0.00463436
     atom   11 type  1   force =    -0.00000000   -0.00000000   -0.00463436
     atom   12 type  1   force =    -0.00000000   -0.00000000   -0.00266156
     atom   13 type  2   force =     0.00000000   -0.00000000   -0.00101192
     atom   14 type  2   force =     0.00000000    0.00000000   -0.00175634
     atom   15 type  2   force =    -0.00000000    0.00000000   -0.00101192
     atom   16 type  2   force =     0.00000000    0.00000000   -0.00175641
     atom   17 type  1   force =    -0.00000000   -0.00000000    0.00487879
     atom   18 type  1   force =     0.00000000   -0.00000000    0.00275322
     atom   19 type  1   force =    -0.00000000   -0.00000000    0.00275322
     atom   20 type  1   force =     0.00000000   -0.00000000    0.00487882
     atom   21 type  2   force =     0.00000000   -0.00000000    0.00167747
     atom   22 type  2   force =     0.00000000    0.00000000    0.00075471
     atom   23 type  2   force =     0.00000000    0.00000000    0.00167747
     atom   24 type  2   force =    -0.00000000    0.00000000    0.00075470
     atom   25 type  1   force =    -0.00000000   -0.00000000   -0.00266152
     atom   26 type  1   force =     0.00000000   -0.00000000   -0.00463436
     atom   27 type  1   force =    -0.00000000    0.00000000   -0.00463436
     atom   28 type  1   force =    -0.00000000    0.00000000   -0.00266156
     atom   29 type  2   force =     0.00000000    0.00000000   -0.00101192
     atom   30 type  2   force =     0.00000000    0.00000000   -0.00175634
     atom   31 type  2   force =     0.00000000    0.00000000   -0.00101192
     atom   32 type  2   force =     0.00000000   -0.00000000   -0.00175641
     atom   33 type  1   force =    -0.00000000   -0.00000000    0.00487879
     atom   34 type  1   force =    -0.00000000   -0.00000000    0.00275322
     atom   35 type  1   force =    -0.00000000    0.00000000    0.00275322
     atom   36 type  1   force =    -0.00000000    0.00000000    0.00487882
     atom   37 type  2   force =     0.00000000    0.00000000    0.00167747
     atom   38 type  2   force =     0.00000000    0.00000000    0.00075471
     atom   39 type  2   force =    -0.00000000    0.00000000    0.00167747
     atom   40 type  2   force =     0.00000000   -0.00000000    0.00075470
     atom   41 type  1   force =    -0.00000000   -0.00000000   -0.00266152
     atom   42 type  1   force =     0.00000000   -0.00000000   -0.00463436
     atom   43 type  1   force =    -0.00000000    0.00000000   -0.00463436
     atom   44 type  1   force =     0.00000000   -0.00000000   -0.00266156
     atom   45 type  2   force =     0.00000000    0.00000000   -0.00101192
     atom   46 type  2   force =     0.00000000    0.00000000   -0.00175634
     atom   47 type  2   force =     0.00000000    0.00000000   -0.00101192
     atom   48 type  2   force =    -0.00000000    0.00000000   -0.00175641
     atom   49 type  1   force =    -0.00000000   -0.00000000    0.00487879
     atom   50 type  1   force =    -0.00000000   -0.00000000    0.00275322
     atom   51 type  1   force =    -0.00000000   -0.00000000    0.00275322
     atom   52 type  1   force =    -0.00000000   -0.00000000    0.00487882
     atom   53 type  2   force =     0.00000000   -0.00000000    0.00167747
     atom   54 type  2   force =     0.00000000    0.00000000    0.00075471
     atom   55 type  2   force =    -0.00000000    0.00000000    0.00167747
     atom   56 type  2   force =     0.00000000    0.00000000    0.00075470
     atom   57 type  1   force =    -0.00000000   -0.00000000   -0.00266152
     atom   58 type  1   force =    -0.00000000   -0.00000000   -0.00463436
     atom   59 type  1   force =    -0.00000000   -0.00000000   -0.00463436
     atom   60 type  1   force =     0.00000000    0.00000000   -0.00266156
     atom   61 type  2   force =     0.00000000   -0.00000000   -0.00101192
     atom   62 type  2   force =     0.00000000    0.00000000   -0.00175634
     atom   63 type  2   force =    -0.00000000    0.00000000   -0.00101192
     atom   64 type  2   force =    -0.00000000   -0.00000000   -0.00175641

     Total force =     0.000881     Total SCF correction =     0.000017
     Energy error            =      2.4E-05 Ry
     Gradient error          =      2.9E-04 Ry/Bohr

     bfgs converged in  13 scf cycles and  12 bfgs steps
     (criteria: energy <  1.0E-04 Ry, force <  7.3E-04 Ry/Bohr)

     End of BFGS Geometry Optimization

     Final energy             =   -4468.6356954103 Ry

     File ./Tr_metals/TiN/TiN.bfgs deleted, as requested
Begin final coordinates

ATOMIC_POSITIONS (angstrom)
Ti            0.0000000000        0.0000000000       10.0000000000    0   0   0
Ti            2.1405327042        0.0000000000       12.1405327042    0   0   0
Ti            0.0000000000        2.1405327042       12.1405327042    0   0   0
Ti            2.1405327042        2.1405327042       10.0000000000    0   0   0
N             0.0000000000        2.1405327042       10.0000000000    0   0   0
N             0.0000000000        0.0000000000       12.1405327042    0   0   0
N             2.1405327042        0.0000000000       10.0000000000    0   0   0
N             2.1405327042        2.1405327042       12.1405327042    0   0   0
Ti            0.0000000000        0.0000000000       14.2121012194
Ti            2.1405327494        0.0000000000       16.2180296053
Ti            0.0000000000        2.1405327494       16.2180296053
Ti            2.1405327359        2.1405327359       14.2121084808
N             0.0000000000        2.1405327078       14.2456314152
N             0.0000000000        0.0000000000       16.3858059756
N             2.1405327078        0.0000000000       14.2456314152
N             2.1405327181        2.1405327181       16.3858331559
Ti            0.0000000000        4.2810654080       10.0000000000    0   0   0
Ti            2.1405327042        4.2810654080       12.1405327042    0   0   0
Ti            0.0000000000        6.4215981122       12.1405327042    0   0   0
Ti            2.1405327042        6.4215981122       10.0000000000    0   0   0
N             0.0000000000        6.4215981122       10.0000000000    0   0   0
N             0.0000000000        4.2810654080       12.1405327042    0   0   0
N             2.1405327042        4.2810654080       10.0000000000    0   0   0
N             2.1405327042        6.4215981122       12.1405327042    0   0   0
Ti            0.0000000000        4.2810654080       14.2121011786
Ti            2.1405326939        4.2810654080       16.2180295944
Ti            0.0000000000        6.4215980670       16.2180296053
Ti            2.1405327359        6.4215980805       14.2121084808
N             0.0000000000        6.4215981086       14.2456314152
N             0.0000000000        4.2810654080       16.3858059984
N             2.1405327049        4.2810654080       14.2456313938
N             2.1405327181        6.4215980983       16.3858331559
Ti            4.2810654080        0.0000000000       10.0000000000    0   0   0
Ti            6.4215981122        0.0000000000       12.1405327042    0   0   0
Ti            4.2810654080        2.1405327042       12.1405327042    0   0   0
Ti            6.4215981122        2.1405327042       10.0000000000    0   0   0
N             4.2810654080        2.1405327042       10.0000000000    0   0   0
N             4.2810654080        0.0000000000       12.1405327042    0   0   0
N             6.4215981122        0.0000000000       10.0000000000    0   0   0
N             6.4215981122        2.1405327042       12.1405327042    0   0   0
Ti            4.2810654080        0.0000000000       14.2121011786
Ti            6.4215980670        0.0000000000       16.2180296053
Ti            4.2810654080        2.1405326939       16.2180295944
Ti            6.4215980805        2.1405327359       14.2121084808
N             4.2810654080        2.1405327049       14.2456313938
N             4.2810654080        0.0000000000       16.3858059984
N             6.4215981086        0.0000000000       14.2456314152
N             6.4215980983        2.1405327181       16.3858331559
Ti            4.2810654080        4.2810654080       10.0000000000    0   0   0
Ti            6.4215981122        4.2810654080       12.1405327042    0   0   0
Ti            4.2810654080        6.4215981122       12.1405327042    0   0   0
Ti            6.4215981122        6.4215981122       10.0000000000    0   0   0
N             4.2810654080        6.4215981122       10.0000000000    0   0   0
N             4.2810654080        4.2810654080       12.1405327042    0   0   0
N             6.4215981122        4.2810654080       10.0000000000    0   0   0
N             6.4215981122        6.4215981122       12.1405327042    0   0   0
Ti            4.2810654080        4.2810654080       14.2121011134
Ti            6.4215981225        4.2810654080       16.2180295944
Ti            4.2810654080        6.4215981225       16.2180295944
Ti            6.4215980805        6.4215980805       14.2121084808
N             4.2810654080        6.4215981115       14.2456313938
N             4.2810654080        4.2810654080       16.3858059702
N             6.4215981115        4.2810654080       14.2456313938
N             6.4215980983        6.4215980983       16.3858331559
End final coordinates

     Writing all to output data dir ./Tr_metals/TiN/TiN.save/

     General routines

     Parallel routines

   This run was terminated on:  15:16:31   4Apr2024

   JOB DONE.