     Program PWSCF v.7.2 starts on  7Apr2024 at 14: 6:22

     Reading input from Li2S4_D3.in
Warning: card &CELL ignored
Warning: card / ignored
     Reading   2 constraints; tolerance:    2.000000
         1) planar angle between atoms:   1  6  5
         2) planar angle between atoms:   3  5  6

     Current dimensions of program PWSCF are:
     Max number of different atomic species (ntypx) = 10
     Max number of k-points (npk) = 120000
     Max angular momentum in pseudopotentials (lmaxx) =  4

     IMPORTANT: XC functional enforced from input :
     Exchange-correlation= PBE
                           (   1   4   3   4   0   0   0)
     Any further DFT definition will be discarded
     Please, verify this is what you really want

     Setting up    2 constraints; tolerance:    2.000000
         1) planar angle between atoms:   1  6  5; target:  109.192432
         2) planar angle between atoms:   3  5  6; target:  109.192432
     Message from routine setup:
     using ibrav=0 with symmetry is DISCOURAGED, use correct ibrav instead
     Message from routine setup:
     Dynamics, you should have no symmetries

     R & G space division:  proc/nbgrp/npool/nimage =      16
     Subspace diagonalization in iterative solution of the eigenvalue problem:
     a serial algorithm will be used

     Using Slab Decomposition

     bravais-lattice index     =            0
     lattice parameter (alat)  =      18.8973  a.u.
     unit-cell volume          =    6748.3345 (a.u.)^3
     number of atoms/cell      =            6
     number of atomic types    =            2
     number of electrons       =        30.00
     number of Kohn-Sham states=           19
     kinetic-energy cutoff     =      40.0000  Ry
     charge density cutoff     =     300.0000  Ry
     scf convergence threshold =      1.0E-08
     mixing beta               =       0.7000
     number of iterations used =            8  TF        mixing
     energy convergence thresh.=      1.0E-04
     force convergence thresh. =      7.3E-04
     Exchange-correlation= PBE
                           (   1   4   3   4   0   0   0)
     nstep                     =          300

     celldm(1)=  18.897261  celldm(2)=   0.000000  celldm(3)=   0.000000
     celldm(4)=   0.000000  celldm(5)=   0.000000  celldm(6)=   0.000000

     crystal axes: (cart. coord. in units of alat)
               a(1) = (   1.000000   0.000000   0.000000 )
               a(2) = (   0.000000   1.000000   0.000000 )
               a(3) = (   0.000000   0.000000   1.000000 )

     reciprocal axes: (cart. coord. in units 2 pi/alat)
               b(1) = (  1.000000  0.000000  0.000000 )
               b(2) = (  0.000000  1.000000  0.000000 )
               b(3) = (  0.000000  0.000000  1.000000 )

     PseudoPot. # 1 for S  read from file:
     ./US_PBE_PP/s_pbe_v1.4.uspp.F.UPF
     MD5 check sum: 88d86576ff6df21479756cfb9bdac1df
     Pseudo is Ultrasoft + core correction, Zval =  6.0
     Generated by new atomic code, or converted to UPF format
     Using radial grid of  907 points,  6 beta functions with:
                l(1) =   0
                l(2) =   0
                l(3) =   1
                l(4) =   1
                l(5) =   2
                l(6) =   2
     Q(r) pseudized with  8 coefficients,  rinner =    1.300   1.300   1.300
                                                       1.300   1.300

     PseudoPot. # 2 for Li read from file:
     ./US_PBE_PP/li_pbe_v1.4.uspp.F.UPF
     MD5 check sum: e912e257baa3777c20ea3d68f190483c
     Pseudo is Ultrasoft, Zval =  3.0
     Generated by new atomic code, or converted to UPF format
     Using radial grid of  751 points,  5 beta functions with:
                l(1) =   0
                l(2) =   0
                l(3) =   0
                l(4) =   1
                l(5) =   1
     Q(r) pseudized with 10 coefficients,  rinner =    1.150   1.150   1.150

     atomic species   valence    mass     pseudopotential
        S              6.00    32.06000     S ( 1.00)
        Li             3.00     6.94000     Li( 1.00)

      4 Sym. Ops. (no inversion) found

   Cartesian axes

     site n.     atom                  positions (alat units)
         1           S   tau(   1) = (   0.5000000   0.6785435   0.4106784  )
         2           Li  tau(   2) = (   0.3523361   0.5000000   0.3911457  )
         3           S   tau(   3) = (   0.5000000   0.3214565   0.4106784  )
         4           Li  tau(   4) = (   0.6476639   0.5000000   0.3911457  )
         5           S   tau(   5) = (   0.5000000   0.3904393   0.6088543  )
         6           S   tau(   6) = (   0.5000000   0.6095607   0.6088543  )

     DFT-D3 Dispersion Correction (3-body terms):
       Reference C6 values for interpolation:

         atom   Coordination number   C6
         Li         0.000          2326.89
         Li         0.987           170.64
         S          0.000           268.01
         S          0.995           261.99
         S          1.990           251.62

       Values used:

         atom   Coordination number  R0_AB[au]  C6      C8
         S          3.017            3.128    251.62  12327.26
         Li         4.068            3.303    170.64  12899.87
         S          3.017            3.128    251.62  12327.26
         Li         4.068            3.303    170.64  12899.87
         S          3.300            3.128    251.62  12327.25
         S          3.300            3.128    251.62  12327.25

         Molecular C6 ( Ry / a.u.^6 ) =      7750.21

     number of k points=     1  Gaussian smearing, width (Ry)=  0.0500
                       cart. coord. in units 2pi/alat
        k(    1) = (   0.0000000   0.0000000   0.0000000), wk =   2.0000000

     Initial potential from superposition of free atoms

     starting charge      29.0984, renormalised to      30.0000

     negative rho (up, down):  2.399E-05 0.000E+00
     Starting wfcs are   26 randomized atomic wfcs

     Self-consistent Calculation

     iteration #  1     ecut=    40.00 Ry     beta= 0.70
     Davidson diagonalization with overlap
     ethr =  1.00E-02,  avg # of iterations =  2.0

     negative rho (up, down):  1.883E-04 0.000E+00

     total energy              =    -125.38226637 Ry
     estimated scf accuracy    <       0.36808196 Ry

[...]

     End of self-consistent calculation

          k = 0.0000 0.0000 0.0000 ( 28671 PWs)   bands (ev):

   -49.8850 -49.8799 -18.8196 -17.2057 -14.8273 -12.8914  -8.7795  -8.0074
    -7.2998  -6.8772  -6.1882  -5.1714  -5.1528  -4.4398  -3.1695  -1.4771
    -1.1278  -0.5966   0.3396

     the Fermi energy is    -2.3403 ev

!    total energy              =    -125.46253688 Ry
     estimated scf accuracy    <          4.5E-09 Ry
     smearing contrib. (-TS)   =      -0.01324225 Ry
     internal energy E=F+TS    =    -125.44929463 Ry

     convergence has been achieved in  17 iterations

[...]

     Forces acting on atoms (cartesian axes, Ry/au):

     atom    1 type  1   force =     0.00000000   -0.00242774    0.00652923
     atom    2 type  2   force =     0.00354740   -0.00000000    0.00392546
     atom    3 type  1   force =     0.00000000    0.00242774    0.00652923
     atom    4 type  2   force =    -0.00354740    0.00000000    0.00392546
     atom    5 type  1   force =     0.00000000   -0.02346744   -0.01045468
     atom    6 type  1   force =     0.00000000    0.02346744   -0.01045468
     The non-local contrib.  to forces
     atom    1 type  1   force =     0.00000000   -0.18225712    0.26911570
     atom    2 type  2   force =    -0.19498124   -0.00000000   -0.00833557
     atom    3 type  1   force =     0.00000000    0.18225712    0.26911570
     atom    4 type  2   force =     0.19498124    0.00000000   -0.00833557
     atom    5 type  1   force =     0.00000000    0.21104747   -0.43392251
     atom    6 type  1   force =     0.00000000   -0.21104747   -0.43392251
     The ionic contribution  to forces
     atom    1 type  1   force =    -0.00000000    6.42870229   -4.65284419
     atom    2 type  2   force =    -3.93875164   -0.00000000   -2.01544351
     atom    3 type  1   force =     0.00000000   -6.42870229   -4.65284419
     atom    4 type  2   force =     3.93875164    0.00000000   -2.01544351
     atom    5 type  1   force =    -0.00000000   -4.51721635    6.66828771
     atom    6 type  1   force =     0.00000000    4.51721635    6.66828771
     The local contribution  to forces
     atom    1 type  1   force =     0.00000000   -6.25963755    4.40514841
     atom    2 type  2   force =     4.13831126   -0.00000000    2.02866865
     atom    3 type  1   force =    -0.00000000    6.25963755    4.40514841
     atom    4 type  2   force =    -4.13831126    0.00000000    2.02866865
     atom    5 type  1   force =     0.00000000    4.29528073   -6.26976782
     atom    6 type  1   force =     0.00000000   -4.29528073   -6.26976782
     The core correction contribution to forces
     atom    1 type  1   force =    -0.00000000    0.00969249   -0.01463672
     atom    2 type  2   force =     0.00000000    0.00000000    0.00000000
     atom    3 type  1   force =    -0.00000000   -0.00969249   -0.01463672
     atom    4 type  2   force =     0.00000000    0.00000000    0.00000000
     atom    5 type  1   force =     0.00000000   -0.01167503    0.02370511
     atom    6 type  1   force =    -0.00000000    0.01167503    0.02370511
     The Hubbard contrib.    to forces
     atom    1 type  1   force =     0.00000000    0.00000000    0.00000000
     atom    2 type  2   force =     0.00000000    0.00000000    0.00000000
     atom    3 type  1   force =     0.00000000    0.00000000    0.00000000
     atom    4 type  2   force =     0.00000000    0.00000000    0.00000000
     atom    5 type  1   force =     0.00000000    0.00000000    0.00000000
     atom    6 type  1   force =     0.00000000    0.00000000    0.00000000
     The SCF correction term to forces
     atom    1 type  1   force =    -0.00000000    0.00003216    0.00000302
     atom    2 type  2   force =    -0.00000949    0.00000000   -0.00000133
     atom    3 type  1   force =    -0.00000000   -0.00003216    0.00000302
     atom    4 type  2   force =     0.00000949    0.00000000   -0.00000133
     atom    5 type  1   force =    -0.00000000   -0.00000833    0.00000844
     atom    6 type  1   force =    -0.00000000    0.00000833    0.00000844

     DFT-D3 dispersion contribution to forces:
     atom    1 type  1   force =     0.00000000    0.00103999   -0.00026187
     atom    2 type  2   force =    -0.00102149   -0.00000000   -0.00096765
     atom    3 type  1   force =     0.00000000   -0.00103999   -0.00026187
     atom    4 type  2   force =     0.00102149   -0.00000000   -0.00096765
     atom    5 type  1   force =     0.00000000   -0.00089593    0.00122952
     atom    6 type  1   force =     0.00000000    0.00089593    0.00122952

     Total force =     0.038381     Total SCF correction =     0.000051

     Computing stress (Cartesian axis) and pressure

     negative rho (up, down):  2.455E-07 0.000E+00
          total   stress  (Ry/bohr**3)                   (kbar)     P=       -0.10
  -0.00000183   0.00000000   0.00000000           -0.27        0.00        0.00
   0.00000000   0.00001268   0.00000000            0.00        1.86        0.00
   0.00000000   0.00000000  -0.00001282            0.00        0.00       -1.89

     Damped Dynamics Calculation

     Constrained forces (Ry/au):

     atom   1 type  1   force =     0.00000000    0.00648409    0.00963133
     atom   2 type  2   force =     0.00354740   -0.00000000    0.00392546
     atom   3 type  1   force =     0.00000000   -0.00648409    0.00963133
     atom   4 type  2   force =    -0.00354740    0.00000000    0.00392546
     atom   5 type  1   force =     0.00000000   -0.01455561   -0.01355679
     atom   6 type  1   force =     0.00000000    0.01455561   -0.01355679

     Total force =     0.033420

     Entering Dynamics:    iteration =     1

ATOMIC_POSITIONS (angstrom)
S             5.0000000000        6.7869408437        4.1090207500
Li            3.5241848378        5.0000000000        3.9123686353
S             5.0000000000        3.2130591563        4.1090207500
Li            6.4758151622        5.0000000000        3.9123686353
S             5.0000000000        3.9010126513        6.0853946148
S             5.0000000000        6.0989873487        6.0853946148

     Writing config-only to output data dir ./LiPS/LiPS.save/
     NEW-OLD atomic charge density approx. for the potential

[...]

     Threshold (ethr) on eigenvalues was too large:
     Diagonalizing with lowered threshold

     Davidson diagonalization with overlap
     ethr =  6.11E-08,  avg # of iterations =  5.0

[...]

     <vel(dt)|acc(dt)> =   0.98648845

[...]

     Entering Dynamics:    iteration =    18

     <vel(dt)|acc(dt)> =  -0.99680725

ATOMIC_POSITIONS (angstrom)
S             5.0000000000        6.9066249673        3.9650628684
Li            3.5866368276        5.0000000000        4.2430019901
S             5.0000000000        3.0933750327        3.9650628684
Li            6.4133631724        5.0000000000        4.2430019901
S             5.0000000000        3.7664590150        5.8987191415
S             5.0000000000        6.2335409850        5.8987191415

     Writing config-only to output data dir ./LiPS/LiPS.save/
     NEW-OLD atomic charge density approx. for the potential

[...]

     Self-consistent Calculation

[...]

     Threshold (ethr) on eigenvalues was too large:
     Diagonalizing with lowered threshold

     Davidson diagonalization with overlap
     ethr =  4.23E-08,  avg # of iterations =  5.0

[...]

     total energy              =    -125.47369738 Ry
     estimated scf accuracy    <       0.00000001 Ry

     iteration #  6     ecut=    40.00 Ry     beta= 0.70
     Davidson diagonalization with overlap
     ethr =  3.98E-11,  avg # of iterations =  2.0

[...]

     End of self-consistent calculation

          k = 0.0000 0.0000 0.0000 ( 28671 PWs)   bands (ev):

   -49.9457 -49.9374 -18.7504 -17.9145 -14.4543 -13.1951  -8.6209  -8.0801
    -7.3824  -7.3436  -6.7083  -5.8059  -5.0309  -4.4112  -3.4421  -2.2227
    -1.0486  -0.5492   0.2636

     the Fermi energy is    -2.8318 ev

!    total energy              =    -125.47369747 Ry
     estimated scf accuracy    <          5.6E-09 Ry
     smearing contrib. (-TS)   =      -0.02543001 Ry
     internal energy E=F+TS    =    -125.44826746 Ry

     convergence has been achieved in   6 iterations

     negative rho (up, down):  2.093E-06 0.000E+00

     Forces acting on atoms (cartesian axes, Ry/au):

     atom    1 type  1   force =     0.00000000   -0.01314205   -0.00456086
     atom    2 type  2   force =     0.00056942    0.00000000    0.00007367
     atom    3 type  1   force =     0.00000000    0.01314205   -0.00456086
     atom    4 type  2   force =    -0.00056942    0.00000000    0.00007367
     atom    5 type  1   force =     0.00000000   -0.01291113    0.00448719
     atom    6 type  1   force =     0.00000000    0.01291113    0.00448719
     The non-local contrib.  to forces
     atom    1 type  1   force =     0.00000000   -0.17622654    0.28213347
     atom    2 type  2   force =    -0.15591209   -0.00000000    0.00763976
     atom    3 type  1   force =     0.00000000    0.17622654    0.28213347
     atom    4 type  2   force =     0.15591209    0.00000000    0.00763976
     atom    5 type  1   force =    -0.00000000    0.07429714   -0.39283947
     atom    6 type  1   force =     0.00000000   -0.07429714   -0.39283947
     The ionic contribution  to forces
     atom    1 type  1   force =    -0.00000000    6.06824353   -5.42832486
     atom    2 type  2   force =    -4.25335389   -0.00000000   -1.60860503
     atom    3 type  1   force =     0.00000000   -6.06824353   -5.42832486
     atom    4 type  2   force =     4.25335389   -0.00000000   -1.60860503
     atom    5 type  1   force =     0.00000000   -3.99990091    7.03692990
     atom    6 type  1   force =     0.00000000    3.99990091    7.03692990
     The local contribution  to forces
     atom    1 type  1   force =     0.00000000   -5.91495783    5.15669885
     atom    2 type  2   force =     4.41051445   -0.00000000    1.60136301
     atom    3 type  1   force =     0.00000000    5.91495783    5.15669885
     atom    4 type  2   force =    -4.41051445   -0.00000000    1.60136301
     atom    5 type  1   force =     0.00000000    3.91748317   -6.66101779
     atom    6 type  1   force =     0.00000000   -3.91748317   -6.66101779
     The core correction contribution to forces
     atom    1 type  1   force =    -0.00000000    0.00931277   -0.01490709
     atom    2 type  2   force =     0.00000000    0.00000000    0.00000000
     atom    3 type  1   force =    -0.00000000   -0.00931277   -0.01490709
     atom    4 type  2   force =     0.00000000    0.00000000    0.00000000
     atom    5 type  1   force =    -0.00000000   -0.00426197    0.02095067
     atom    6 type  1   force =    -0.00000000    0.00426197    0.02095067
     The Hubbard contrib.    to forces
     atom    1 type  1   force =     0.00000000    0.00000000    0.00000000
     atom    2 type  2   force =     0.00000000    0.00000000    0.00000000
     atom    3 type  1   force =     0.00000000    0.00000000    0.00000000
     atom    4 type  2   force =     0.00000000    0.00000000    0.00000000
     atom    5 type  1   force =     0.00000000    0.00000000    0.00000000
     atom    6 type  1   force =     0.00000000    0.00000000    0.00000000
     The SCF correction term to forces
     atom    1 type  1   force =    -0.00000000    0.00001565   -0.00000541
     atom    2 type  2   force =    -0.00000190   -0.00000000    0.00000070
     atom    3 type  1   force =    -0.00000000   -0.00001565   -0.00000541
     atom    4 type  2   force =     0.00000190   -0.00000000    0.00000070
     atom    5 type  1   force =    -0.00000000   -0.00000887    0.00001114
     atom    6 type  1   force =    -0.00000000    0.00000887    0.00001114

     DFT-D3 dispersion contribution to forces:
     atom    1 type  1   force =    -0.00000000    0.00047036   -0.00014653
     atom    2 type  2   force =    -0.00067715    0.00000000   -0.00031548
     atom    3 type  1   force =    -0.00000000   -0.00047036   -0.00014653
     atom    4 type  2   force =     0.00067715    0.00000000   -0.00031548
     atom    5 type  1   force =    -0.00000000   -0.00051970    0.00046201
     atom    6 type  1   force =    -0.00000000    0.00051970    0.00046201

     Total force =     0.027593     Total SCF correction =     0.000031

     Computing stress (Cartesian axis) and pressure

     negative rho (up, down):  2.093E-06 0.000E+00
          total   stress  (Ry/bohr**3)                   (kbar)     P=       -0.02
   0.00000035   0.00000000   0.00000000            0.05        0.00        0.00
   0.00000000  -0.00000516   0.00000000            0.00       -0.76        0.00
   0.00000000   0.00000000   0.00000442            0.00        0.00        0.65

     Constrained forces (Ry/au):

     atom   1 type  1   force =     0.00000000   -0.00011869   -0.00002757
     atom   2 type  2   force =     0.00056942    0.00000000    0.00007367
     atom   3 type  1   force =     0.00000000    0.00011869   -0.00002757
     atom   4 type  2   force =    -0.00056942    0.00000000    0.00007367
     atom   5 type  1   force =     0.00000000    0.00011224   -0.00004610
     atom   6 type  1   force =     0.00000000   -0.00011224   -0.00004610

     Total force =     0.000848

     Damped Dynamics: convergence achieved in  18 steps

     End of damped dynamics calculation

     Final energy =    -125.4736974676 Ry

Begin final coordinates
     new unit-cell volume =   6748.33449 a.u.^3 (  1000.00000 Ang^3 )
     density =      0.23600 g/cm^3

CELL_PARAMETERS (angstrom)
  10.000000000   0.000000000   0.000000000
   0.000000000  10.000000000   0.000000000
   0.000000000   0.000000000  10.000000000

ATOMIC_POSITIONS (angstrom)
S             5.0000000000        6.9066249673        3.9650628684
Li            3.5866368276        5.0000000000        4.2430019901
S             5.0000000000        3.0933750327        3.9650628684
Li            6.4133631724        5.0000000000        4.2430019901
S             5.0000000000        3.7664590150        5.8987191415
S             5.0000000000        6.2335409850        5.8987191415
End final coordinates

     Writing all to output data dir ./LiPS/LiPS.save/

     General routines

     Parallel routines

   This run was terminated on:  14:12:18   7Apr2024

   JOB DONE.